15	53
0	1	41
0	4	17
0	5	87
0	6	72
0	8	21
0	9	90
0	10	41
0	11	59
0	14	68
1	2	20
1	3	22
1	5	89
1	6	90
1	9	33
1	11	10
1	13	75
1	14	83
2	4	30
2	5	16
2	7	96
2	8	38
2	10	15
2	12	88
2	14	53
3	4	31
3	5	6
3	6	31
3	7	34
3	10	56
3	11	80
3	14	3
4	7	90
4	11	29
4	14	52
5	8	37
5	9	3
5	10	17
5	13	43
6	7	6
6	8	81
6	11	60
7	10	64
7	11	99
7	12	93
7	13	41
8	11	41
8	14	82
9	13	70
10	11	94
10	14	13
11	14	86
12	13	21
12	14	89
